Reading model...
...model read.
creating competitive generators file...
...competitive generators recorded.
Loading data...
.. real-time data read.
Compiling instance...
0.0
0.0
0.0
0.0
...instance created.
Creating Offer Mitigation (model will solve as dispatch if TRUE)...
...storage offer mitigation file created
Converting model to MPEC...
...converted
NOTE: initial MIP solve with only storage competitive to get feasible solution
Solving...

Welcome to IBM(R) ILOG(R) CPLEX(R) Interactive Optimizer 12.9.0.0
  with Simplex, Mixed Integer & Barrier Optimizers
5725-A06 5725-A29 5724-Y48 5724-Y49 5724-Y54 5724-Y55 5655-Y21
Copyright IBM Corp. 1988, 2019.  All Rights Reserved.

Type 'help' for a list of available commands.
Type 'help' followed by a command name for more
information on commands.

CPLEX> Logfile 'cplex.log' closed.
Logfile 'C:\Users\llavin\Desktop\test826\logs\tmpasvvqefh.cplex.log' open.
CPLEX> New value for parallel optimization mode: -1
CPLEX> New value for mixed integer optimality gap tolerance: 0.005
CPLEX> New value for feasibility tolerance: 1e-09
CPLEX> New value for emphasis for MIP optimization: 1
CPLEX> New value for deterministic time limit in ticks: 100000
CPLEX> Problem 'C:\Users\llavin\Desktop\test826\logs\tmp6y6f06m4.pyomo.lp' read.
Read time = 0.55 sec. (28.54 ticks)
CPLEX> Problem name         : C:\Users\llavin\Desktop\test826\logs\tmp6y6f06m4.pyomo.lp
Objective sense      : Maximize
Variables            :  107783  [Nneg: 1,  Box: 44058,  Free: 8928,
                                 Binary: 54796]
Objective nonzeros   :   19058
Linear constraints   :  246901  [Less: 82864,  Greater: 118424,  Equal: 45613]
  Nonzeros           :  619805
  RHS nonzeros       :  136512

Variables            : Min LB: -5000.000        Max UB: 1000000.       
Objective nonzeros   : Min   : 0.02500000       Max   : 208.3333       
Linear constraints   :
  Nonzeros           : Min   : 0.02500000       Max   : 1000000.       
  RHS nonzeros       : Min   : 0.02500000       Max   : 1000000.       
CPLEX> CPXPARAM_Parallel                                -1
CPXPARAM_Emphasis_MIP                            1
CPXPARAM_Simplex_Tolerances_Feasibility          1.0000000000000001e-09
CPXPARAM_DetTimeLimit                            100000
CPXPARAM_MIP_Tolerances_MIPGap                   0.0050000000000000001
Tried aggregator 3 times.
MIP Presolve eliminated 173753 rows and 34802 columns.
MIP Presolve added 7675 rows and 0 columns.
MIP Presolve modified 52646 coefficients.
Aggregator did 26033 substitutions.
Reduced MIP has 54790 rows, 46564 columns, and 155888 nonzeros.
Reduced MIP has 18467 binaries, 0 generals, 0 SOSs, and 0 indicators.
Presolve time = 0.63 sec. (349.11 ticks)
Probing fixed 840 vars, tightened 11632 bounds.
Probing time = 0.44 sec. (16.91 ticks)
Tried aggregator 2 times.
MIP Presolve eliminated 1874 rows and 1687 columns.
MIP Presolve modified 12604 coefficients.
Aggregator did 96 substitutions.
Reduced MIP has 52820 rows, 44781 columns, and 150150 nonzeros.
Reduced MIP has 17625 binaries, 0 generals, 0 SOSs, and 0 indicators.
Presolve time = 0.31 sec. (260.07 ticks)
Probing fixed 0 vars, tightened 4276 bounds.
Probing time = 0.61 sec. (18.19 ticks)
Clique table members: 79505.
MIP emphasis: integer feasibility.
MIP search method: dynamic search.
Parallel mode: opportunistic, using up to 32 threads.
Root relaxation solution time = 1.23 sec. (666.69 ticks)

        Nodes                                         Cuts/
   Node  Left     Objective  IInf  Best Integer    Best Bound    ItCnt     Gap

      0     0        0.0000   162                      0.0000       39         
*     0+    0                            0.0000        0.0000             0.00%
      0     0        cutoff              0.0000        0.0000       39    0.00%
Elapsed time = 4.11 sec. (2949.99 ticks, tree = 0.01 MB, solutions = 1)

Root node processing (before b&c):
  Real time             =    4.16 sec. (2953.98 ticks)
Parallel b&c, 32 threads:
  Real time             =    0.00 sec. (0.00 ticks)
  Sync time (average)   =    0.00 sec.
  Wait time (average)   =    0.00 sec.
                          ------------
Total (root+branch&cut) =    4.16 sec. (2953.98 ticks)

Solution pool: 1 solution saved.

MIP - Integer optimal solution:  Objective =  4.9775508160e-09
Solution time =    4.17 sec.  Iterations = 39  Nodes = 0
Deterministic time = 2954.29 ticks  (708.12 ticks/sec)

CPLEX> Incumbent solution written to file 'C:\Users\llavin\Desktop\test826\logs\tmpmhib04uz.cplex.sol'.
CPLEX> NOTE: no warmstart specified for MIP iteration, default behavior is true
NOTE: resolving with all competitive generators using storage-only solution to warmstart
Solving...

Welcome to IBM(R) ILOG(R) CPLEX(R) Interactive Optimizer 12.9.0.0
  with Simplex, Mixed Integer & Barrier Optimizers
5725-A06 5725-A29 5724-Y48 5724-Y49 5724-Y54 5724-Y55 5655-Y21
Copyright IBM Corp. 1988, 2019.  All Rights Reserved.

Type 'help' for a list of available commands.
Type 'help' followed by a command name for more
information on commands.

CPLEX> Logfile 'cplex.log' closed.
Logfile 'C:\Users\llavin\Desktop\test826\logs\tmp8r3kf94z.cplex.log' open.
CPLEX> New value for parallel optimization mode: -1
CPLEX> New value for mixed integer optimality gap tolerance: 0.005
CPLEX> New value for feasibility tolerance: 1e-09
CPLEX> New value for emphasis for MIP optimization: 1
CPLEX> New value for deterministic time limit in ticks: 100000
CPLEX> Problem 'C:\Users\llavin\Desktop\test826\logs\tmp7c846ou5.pyomo.lp' read.
Read time = 0.58 sec. (28.59 ticks)
CPLEX> MIP start file 'C:\Users\llavin\Desktop\test826\logs\tmpty19t9av.cplex.mst' read.
CPLEX> Problem name         : C:\Users\llavin\Desktop\test826\logs\tmp7c846ou5.pyomo.lp
Objective sense      : Maximize
Variables            :  109223  [Nneg: 1,  Box: 45498,  Free: 8928,
                                 Binary: 54796]
Objective nonzeros   :   20450
Linear constraints   :  246901  [Less: 82864,  Greater: 118424,  Equal: 45613]
  Nonzeros           :  619805
  RHS nonzeros       :  136512

Variables            : Min LB: -5000.000        Max UB: 1000000.       
Objective nonzeros   : Min   : 0.02500000       Max   : 208.3333       
Linear constraints   :
  Nonzeros           : Min   : 0.02500000       Max   : 1000000.       
  RHS nonzeros       : Min   : 0.02500000       Max   : 1000000.       
CPLEX> CPXPARAM_Parallel                                -1
CPXPARAM_Emphasis_MIP                            1
CPXPARAM_Simplex_Tolerances_Feasibility          1.0000000000000001e-09
CPXPARAM_DetTimeLimit                            100000
CPXPARAM_MIP_Tolerances_MIPGap                   0.0050000000000000001
Warning:  No solution found from 1 MIP starts.
Retaining values of one MIP start for possible repair.
Tried aggregator 3 times.
MIP Presolve eliminated 173753 rows and 36242 columns.
MIP Presolve added 7675 rows and 0 columns.
MIP Presolve modified 52646 coefficients.
Aggregator did 26033 substitutions.
Reduced MIP has 54790 rows, 46564 columns, and 155888 nonzeros.
Reduced MIP has 18467 binaries, 0 generals, 0 SOSs, and 0 indicators.
Presolve time = 0.63 sec. (349.84 ticks)
Probing fixed 840 vars, tightened 11632 bounds.
Probing time = 0.42 sec. (16.91 ticks)
Tried aggregator 2 times.
MIP Presolve eliminated 1874 rows and 1687 columns.
MIP Presolve modified 12604 coefficients.
Aggregator did 96 substitutions.
Reduced MIP has 52820 rows, 44781 columns, and 150150 nonzeros.
Reduced MIP has 17625 binaries, 0 generals, 0 SOSs, and 0 indicators.
Presolve time = 0.31 sec. (260.09 ticks)
Probing fixed 0 vars, tightened 4276 bounds.
Probing time = 0.59 sec. (18.19 ticks)
Clique table members: 79505.
MIP emphasis: integer feasibility.
MIP search method: dynamic search.
Parallel mode: opportunistic, using up to 32 threads.
Root relaxation solution time = 1.73 sec. (2756.91 ticks)

        Nodes                                         Cuts/
   Node  Left     Objective  IInf  Best Integer    Best Bound    ItCnt     Gap

      0     0     4365.5361   183                   4365.5361     6881         
      0     0     4365.0370    50                   Cuts: 179     7058         
      0     0     4364.9253    50                    Cuts: 96     7091         
      0     0     4364.8018    49                 Flowcuts: 5     7098         
Repair heuristic found nothing.
      0     6     4319.4798    43                   Covers: 1     7115         
Elapsed time = 10.47 sec. (5582.06 ticks, tree = 0.02 MB, solutions = 0)
    265    44     4128.5010    22                   4361.4537     7286         
    554   102     3855.3357    13                   4361.4537     7687         
    823   629     4338.1579    36                   4361.4537    14326         
   1092   566     4183.6061    34                   4361.4537    13499         
   1353   982     4338.2598    37                   4361.4537    22123         
   1627  1069     2810.0589    33                   4361.4537    24278         
   1909  1543     4203.8752    29                   4361.4537    34135         
   2180  1494    infeasible                         4361.4537    33386         
   2451  1823     4206.3929    28                   4361.4537    40161         
   3591  2622     2349.5405    31                   4361.4537    57728         
Elapsed time = 31.39 sec. (8689.06 ticks, tree = 40.16 MB, solutions = 0)
   4545  3504      271.7571    32                   4361.4537    84064         
   5419  4771     -942.2433    46                   4361.4537   123146         
   5703  5417     3895.6352    26                   4361.3661   157517         
   6816   199     3730.9142     4                   4341.2866   161138         
   7964  1436      873.0745    19                   4341.2866   186986         
   9221  1174     1615.8345    55                   4341.2866   184443         
  10439  2143    infeasible                         4341.2866   201673         
  11553  4034     1253.3051    23                   4341.2866   258855         
  12506  3826      -25.1231    36                   4341.2866   252179         
* 13263  5026      integral     0     3651.8078     4341.2866   302744   18.88%
  13493  4902    infeasible           3651.8078     4341.2866   294830   18.88%
Elapsed time = 108.45 sec. (24739.93 ticks, tree = 296.44 MB, solutions = 3)
  14824  5739     4154.1833    12     3651.8078     4341.2714   321164   18.88%
  16659  1082     3999.3997    10     3651.8078     4341.2714   350896   18.88%
  18488  2436     4014.9402     5     3651.9377     4341.2714   377292   18.88%
  20590  4381     4113.9509    22     3651.9377     4341.2714   382216   18.88%
  22896  5342     3999.5793     6     3651.9377     4341.2714   384633   18.88%
  24403  7449     4034.1498     8     3651.9377     4341.2714   392668   18.88%
  24636 15278     4096.0169    14     3651.9377     4341.2714   423286   18.88%
  25030  9737     3844.9256     2     3651.9377     4341.2714   402128   18.88%
  26279 11230     3887.2724    12     3651.9377     4341.2714   407868   18.88%
  27714 12019     3999.5793     5     3651.9377     4341.2714   410258   18.88%
Elapsed time = 171.64 sec. (34283.69 ticks, tree = 465.01 MB, solutions = 9)
  29160 12632     4040.5361    12     3651.9377     4341.2714   412923   18.88%
  30784 14646     4034.2796     8     3651.9377     4341.2714   420285   18.88%
  32836 14590     4132.1982    23     3651.9377     4341.2714   420267   18.88%
  34900 17635     4020.9034    12     3651.9377     4341.2714   431476   18.88%
  36873 17413     3929.9356    13     3651.9377     4341.2714   431199   18.88%
  38775 19676     3844.9256     2     3651.9377     4341.2714   436958   18.88%
  40840 19673     3863.4346     8     3651.9377     4341.2714   437108   18.88%
  43056 23025     4058.9068    17     3651.9377     4341.2714   446223   18.88%
  45277 27011     4063.8427    13     3651.9377     4341.2714   455595   18.88%
  47337 29820     3963.3759    11     3651.9377     4341.2714   462825   18.88%
Elapsed time = 212.17 sec. (43827.02 ticks, tree = 729.13 MB, solutions = 9)
  49239 28208     3963.3759    11     3651.9377     4341.2714   458771   18.88%
  51023 29260     3844.9256     3     3651.9377     4341.2714   461460   18.88%
  52363 30270     3844.9256     2     3651.9377     4341.2714   463885   18.88%
  52784 36749    infeasible           3651.9377     4341.2714   493373   18.88%
  53877    73     4037.2981    26     3651.9377     4341.2714   494635   18.88%
  55288   399     4193.9767    33     3651.9377     4341.2714   499070   18.88%
  56694  1075     4041.1520    18     3651.9377     4341.2714   510722   18.88%
  58481  1393     4257.7771    31     3651.9377     4341.2714   517123   18.88%
  60374  2088     4015.4298    25     3651.9377     4341.2714   525495   18.88%
  62304  3268     3856.7190     9     3651.9377     4341.2714   536417   18.88%
Elapsed time = 265.34 sec. (59327.68 ticks, tree = 40.61 MB, solutions = 9)
  64252  4713     3844.9256     2     3651.9377     4341.2714   546617   18.88%
  66372  7351     4034.2796     9     3651.9377     4341.2714   556666   18.88%
  68499 10487     3963.8221    10     3651.9377     4341.2714   567964   18.88%
  70616 11022     3879.6260     8     3651.9377     4341.2714   570185   18.88%
  72698 11072     4034.2796    10     3651.9377     4341.2714   570459   18.88%
  74803 14473     3999.5793     6     3651.9377     4341.2714   586549   18.88%
  76884 15448     3879.6260     8     3651.9377     4341.2714   591834   18.88%
  78777 17120     3879.6260    11     3651.9377     4341.2714   599357   18.88%
  80869 19292     4156.8101    12     3651.9377     4341.2714   609270   18.88%
  82994 21336     3879.6260     7     3651.9377     4341.2714   618596   18.88%
Elapsed time = 324.00 sec. (68870.85 ticks, tree = 327.06 MB, solutions = 9)
  85104 22471     3879.6260     8     3651.9377     4341.2714   624023   18.88%
  87276 27228     3879.6260    10     3651.9377     4341.2714   644869   18.88%
  89403 27175     3844.9256     5     3651.9377     4341.2714   644516   18.88%
  91347 28829     4034.2796    10     3651.9377     4341.2714   652304   18.88%
  93346 30800     3929.1218     5     3651.9377     4341.2714   661544   18.88%
  95529 31795     3844.9256     2     3651.9377     4341.2714   665875   18.88%
  97709 33252     3879.6260     9     3651.9377     4341.2714   671646   18.88%
  99847 37183     3967.4560     7     3651.9377     4341.2714   689423   18.88%
 102027 37741     3844.9256     2     3651.9377     4341.2714   691851   18.88%
 104191 39877     3879.6260     6     3651.9377     4341.2714   701011   18.88%
Elapsed time = 378.81 sec. (78411.34 ticks, tree = 622.25 MB, solutions = 9)
 106350 42252     3686.6380     4     3651.9377     4341.2714   711736   18.88%
 108407 44004     4002.1564    11     3651.9377     4341.2714   718059   18.88%
 110243 45281     3844.9256     4     3651.9377     4341.2714   722989   18.88%
 112224 46596     4034.2796    10     3651.9377     4341.2714   728547   18.88%
 114375 48417     3844.9256     2     3651.9377     4341.2714   737005   18.88%
 116544 50499     3844.9256     2     3651.9377     4341.2714   749017   18.88%
 118680 53323     3844.9256     3     3651.9377     4341.2714   765475   18.88%
 120841 54120     3879.6260     7     3651.9377     4341.2714   770621   18.88%
 122969 55082     3844.9256     2     3651.9377     4341.2714   776313   18.88%
 125101 57017     3804.7142     7     3651.9377     4341.2714   786714   18.88%
Elapsed time = 441.08 sec. (87952.08 ticks, tree = 893.91 MB, solutions = 9)
 127242 60026     4030.6625     8     3651.9377     4341.2714   802197   18.88%
 129288 62418     3844.9256     3     3651.9377     4341.2714   813244   18.88%
 131203 66094     3844.9256     2     3651.9377     4341.2714   831227   18.88%
 133065 64171     3844.9256     2     3651.9377     4341.2714   821129   18.88%
 135101 65492     3774.4681     5     3651.9377     4341.2714   828017   18.88%
 137194 73546     3967.4560     5     3651.9377     4341.2714   875567   18.88%
 139363 71841     4047.1979     7     3651.9377     4341.2714   865937   18.88%
 141559 74517     3967.4560     5     3651.9377     4341.2714   880075   18.88%
 143696 73981     4122.1097     6     3651.9377     4341.2714   877851   18.88%
 145786 75014     3967.4560     4     3651.9377     4341.2714   882076   18.88%
Elapsed time = 497.77 sec. (97497.04 ticks, tree = 1181.43 MB, solutions = 9)
 147666 77608     3967.4560     5     3651.9377     4341.2714   895559   18.88%
 149305 76556     3967.4560     5     3651.9377     4341.2714   890121   18.88%

Cover cuts applied:  31
Flow cuts applied:  45
Mixed integer rounding cuts applied:  7
Gomory fractional cuts applied:  16

Root node processing (before b&c):
  Real time             =    7.31 sec. (5521.04 ticks)
Parallel b&c, 32 threads:
  Real time             =  493.25 sec. (94509.59 ticks)
  Sync time (average)   =    3.84 sec.
  Wait time (average)   =    0.80 sec.
                          ------------
Total (root+branch&cut) =  500.56 sec. (100030.63 ticks)

Solution pool: 9 solutions saved.

MIP - Deterministic time limit exceeded, integer feasible:  Objective =  3.6519376703e+03
Current MIP best bound =  4.3412713944e+03 (gap = 689.334, 18.88%)
Solution time =  500.61 sec.  Iterations = 921218  Nodes = 149969 (82717)
Deterministic time = 100030.94 ticks  (199.82 ticks/sec)

CPLEX> Incumbent solution written to file 'C:\Users\llavin\Desktop\test826\logs\tmpj701jrdm.cplex.sol'.
CPLEX> Exporting results... 
